200
300
210
210
208
208
208
206
206
205
204
201
200
200
200
200
199
199
196
195
193
192
191
190
190
188
187
187
186
185
183
183
182
181
181
180
179
179
178
175
173
173
173
172
172
172
169
169
169
168
167
166
165
165
164
162
161
160
157
156
154
154
153
153
153
152
151
150
150
147
146
146
145
143
142
142
141
140
140
138
138
137
137
137
135
135
134
134
134
133
131
127
126
122
122
121
121
121
120
120
119
117
116
116
114
113
111
111
110
107
107
102
102
101
101
99
99
99
98
98
98
98
98
98
97
96
95
94
94
94
92
92
91
90
89
88
86
86
85
82
81
80
79
79
79
78
77
77
74
74
73
73
73
73
70
70
70
70
69
69
68
67
67
65
64
63
60
58
57
56
56
56
56
55
54
54
54
53
53
52
51
51
49
49
45
45
44
43
42
40
39
39
37
34
34
34
33
33
32
31
31
30
